(declare-fun tobool.not.i1.i_11_44 () (_ BitVec 1))
(declare-fun src_reg1.sroa.13.0.copyload_11_42 () (_ BitVec 64))
(declare-fun src_reg_11_23 () (_ BitVec 64))
(declare-fun src_reg1.sroa.45.0.copyload_11_41 () (_ BitVec 64))
(declare-fun src_reg_11_27 () (_ BitVec 64))
(declare-fun src_reg1.sroa.37.0.copyload_11_40 () (_ BitVec 64))
(declare-fun src_reg_11_26 () (_ BitVec 64))
(declare-fun src_reg1.sroa.34.0.copyload_11_39 () (_ BitVec 64))
(declare-fun src_reg_11_25 () (_ BitVec 64))
(declare-fun src_reg1.sroa.27.0.copyload_11_38 () (_ BitVec 64))
(declare-fun src_reg_11_24 () (_ BitVec 64))
(declare-fun src_reg_11_35 () (_ BitVec 8))
(declare-fun src_reg_11_34 () (_ BitVec 32))
(declare-fun src_reg_11_33 () (_ BitVec 32))
(declare-fun src_reg_11_32 () (_ BitVec 32))
(declare-fun src_reg_11_31 () (_ BitVec 32))
(declare-fun src_reg_11_30 () (_ BitVec 32))
(declare-fun src_reg_11_29 () (_ BitVec 32))
(declare-fun src_reg_11_28 () (_ BitVec 32))
(declare-fun src_reg_11_22 () (_ BitVec 64))
(declare-fun src_reg_11_21 () (_ BitVec 32))
(declare-fun src_reg_11_20 () (_ BitVec 32))
(declare-fun src_reg_11_19 () (_ BitVec 32))
(declare-fun src_reg_11_18 () (_ BitVec 32))
(declare-fun dst_reg_11_17 () (_ BitVec 8))
(declare-fun dst_reg_11_16 () (_ BitVec 32))
(declare-fun dst_reg_11_15 () (_ BitVec 32))
(declare-fun dst_reg_11_14 () (_ BitVec 32))
(declare-fun dst_reg_11_13 () (_ BitVec 32))
(declare-fun dst_reg_11_12 () (_ BitVec 32))
(declare-fun dst_reg_11_11 () (_ BitVec 32))
(declare-fun dst_reg_11_10 () (_ BitVec 32))
(declare-fun dst_reg_11_9 () (_ BitVec 64))
(declare-fun dst_reg_11_8 () (_ BitVec 64))
(declare-fun dst_reg_11_7 () (_ BitVec 64))
(declare-fun dst_reg_11_6 () (_ BitVec 64))
(declare-fun dst_reg_11_5 () (_ BitVec 64))
(declare-fun dst_reg_11_4 () (_ BitVec 64))
(declare-fun dst_reg_11_3 () (_ BitVec 32))
(declare-fun dst_reg_11_2 () (_ BitVec 32))
(declare-fun dst_reg_11_1 () (_ BitVec 32))
(declare-fun dst_reg_11_0 () (_ BitVec 32))
(declare-fun or8.i.i.i1034.i_11_131 () (_ BitVec 64))
(declare-fun cond14.i8.i.i1036.i_11_133 () (_ BitVec 64))
(declare-fun shr1.i.i_11_100 () (_ BitVec 64))
(declare-fun cmp10.i.i.i1035.i_11_132 () (_ BitVec 1))
(declare-fun shr14.i.i.i_11_105 () (_ BitVec 64))
(declare-fun and7.i.i.i1033.i_11_130 () (_ BitVec 64))
(declare-fun shr19.i.i.i_11_106 () (_ BitVec 64))
(declare-fun or.i5.i.i1028.i_11_126 () (_ BitVec 64))
(declare-fun cond.i7.i.i1030.i_11_128 () (_ BitVec 64))
(declare-fun shr.i972.i_11_98 () (_ BitVec 64))
(declare-fun cmp.i6.i.i1029.i_11_127 () (_ BitVec 1))
(declare-fun and.i4.i.i1027.i_11_125 () (_ BitVec 64))
(declare-fun and.i.i.i.i.i992.i33_11_122 () (_ BitVec 64))
(declare-fun conv29.i.i.i1018.i_11_123 () (_ BitVec 32))
(declare-fun conv17.i.i.i1012.i_11_121 () (_ BitVec 32))
(declare-fun or6.i.i.i1006.i_11_119 () (_ BitVec 64))
(declare-fun conv7.i.i.i1007.i_11_120 () (_ BitVec 32))
(declare-fun and5.i.i.i1005.i_11_118 () (_ BitVec 64))
(declare-fun or.i.i.i999.i_11_115 () (_ BitVec 64))
(declare-fun conv.i.i.i1000.i_11_116 () (_ BitVec 32))
(declare-fun and.i.i.i998.i_11_114 () (_ BitVec 64))
(declare-fun sh_prom.i.i980.i_11_104 () (_ BitVec 64))
(declare-fun i16.i979.i_11_102 () (_ BitVec 64))
(declare-fun i14.i977.i_11_101 () (_ BitVec 64))
(declare-fun i12.i974.i_11_99 () (_ BitVec 64))
(declare-fun i11.i971.i_11_97 () (_ BitVec 64))
(declare-fun or.cond85.i_11_53 () (_ BitVec 1))
(declare-fun cmp125.not.i_11_85 () (_ BitVec 1))
(declare-fun cmp42.i_11_51 () (_ BitVec 1))
(declare-fun or.cond84.i_11_50 () (_ BitVec 1))
(declare-fun or.cond83.i_11_48 () (_ BitVec 1))
(declare-fun cmp39.i_11_49 () (_ BitVec 1))
(declare-fun cmp36.not.i_11_46 () (_ BitVec 1))
(declare-fun cmp33.not.i_11_45 () (_ BitVec 1))
(declare-fun src_reg_11_205 () (_ BitVec 8))
(declare-fun src_reg_11_169 () (_ BitVec 8))
(declare-fun src_reg_11_204 () (_ BitVec 32))
(declare-fun src_reg_11_168 () (_ BitVec 32))
(declare-fun src_reg_11_203 () (_ BitVec 32))
(declare-fun src_reg_11_167 () (_ BitVec 32))
(declare-fun src_reg_11_202 () (_ BitVec 32))
(declare-fun src_reg_11_166 () (_ BitVec 32))
(declare-fun src_reg_11_201 () (_ BitVec 32))
(declare-fun src_reg_11_165 () (_ BitVec 32))
(declare-fun src_reg_11_200 () (_ BitVec 32))
(declare-fun src_reg_11_164 () (_ BitVec 32))
(declare-fun src_reg_11_199 () (_ BitVec 32))
(declare-fun src_reg_11_163 () (_ BitVec 32))
(declare-fun src_reg_11_198 () (_ BitVec 32))
(declare-fun src_reg_11_162 () (_ BitVec 32))
(declare-fun src_reg_11_197 () (_ BitVec 64))
(declare-fun src_reg_11_161 () (_ BitVec 64))
(declare-fun src_reg_11_196 () (_ BitVec 64))
(declare-fun src_reg_11_160 () (_ BitVec 64))
(declare-fun src_reg_11_195 () (_ BitVec 64))
(declare-fun src_reg_11_159 () (_ BitVec 64))
(declare-fun src_reg_11_194 () (_ BitVec 64))
(declare-fun src_reg_11_158 () (_ BitVec 64))
(declare-fun src_reg_11_193 () (_ BitVec 64))
(declare-fun src_reg_11_157 () (_ BitVec 64))
(declare-fun src_reg_11_192 () (_ BitVec 64))
(declare-fun src_reg_11_156 () (_ BitVec 64))
(declare-fun src_reg_11_191 () (_ BitVec 32))
(declare-fun src_reg_11_155 () (_ BitVec 32))
(declare-fun src_reg_11_190 () (_ BitVec 32))
(declare-fun src_reg_11_154 () (_ BitVec 32))
(declare-fun src_reg_11_189 () (_ BitVec 32))
(declare-fun src_reg_11_153 () (_ BitVec 32))
(declare-fun src_reg_11_188 () (_ BitVec 32))
(declare-fun src_reg_11_152 () (_ BitVec 32))
(declare-fun dst_reg_11_187 () (_ BitVec 8))
(declare-fun dst_reg_11_151 () (_ BitVec 8))
(declare-fun dst_reg_11_186 () (_ BitVec 32))
(declare-fun dst_reg_11_150 () (_ BitVec 32))
(declare-fun dst_reg_11_185 () (_ BitVec 32))
(declare-fun dst_reg_11_149 () (_ BitVec 32))
(declare-fun dst_reg_11_184 () (_ BitVec 32))
(declare-fun dst_reg_11_148 () (_ BitVec 32))
(declare-fun dst_reg_11_183 () (_ BitVec 32))
(declare-fun dst_reg_11_147 () (_ BitVec 32))
(declare-fun dst_reg_11_182 () (_ BitVec 32))
(declare-fun dst_reg_11_146 () (_ BitVec 32))
(declare-fun dst_reg_11_181 () (_ BitVec 32))
(declare-fun dst_reg_11_145 () (_ BitVec 32))
(declare-fun dst_reg_11_180 () (_ BitVec 32))
(declare-fun dst_reg_11_144 () (_ BitVec 32))
(declare-fun dst_reg_11_179 () (_ BitVec 64))
(declare-fun dst_reg_11_143 () (_ BitVec 64))
(declare-fun dst_reg_11_178 () (_ BitVec 64))
(declare-fun dst_reg_11_142 () (_ BitVec 64))
(declare-fun dst_reg_11_177 () (_ BitVec 64))
(declare-fun dst_reg_11_141 () (_ BitVec 64))
(declare-fun dst_reg_11_176 () (_ BitVec 64))
(declare-fun dst_reg_11_140 () (_ BitVec 64))
(declare-fun dst_reg_11_175 () (_ BitVec 64))
(declare-fun dst_reg_11_139 () (_ BitVec 64))
(declare-fun dst_reg_11_174 () (_ BitVec 64))
(declare-fun dst_reg_11_138 () (_ BitVec 64))
(declare-fun dst_reg_11_173 () (_ BitVec 32))
(declare-fun dst_reg_11_137 () (_ BitVec 32))
(declare-fun dst_reg_11_172 () (_ BitVec 32))
(declare-fun dst_reg_11_136 () (_ BitVec 32))
(declare-fun dst_reg_11_171 () (_ BitVec 32))
(declare-fun dst_reg_11_135 () (_ BitVec 32))
(declare-fun dst_reg_11_170 () (_ BitVec 32))
(declare-fun dst_reg_11_134 () (_ BitVec 32))
(declare-fun or.cond86.i_11_57 () (_ BitVec 1))
(declare-fun cmp42.old.i_11_55 () (_ BitVec 1))
(declare-fun cmp39.old.i_11_54 () (_ BitVec 1))
(assert (let ((a!1 (=> (and (= or.cond85.i_11_53 #b0) (= tobool.not.i1.i_11_44 #b1))
               (and (ite (bvult src_reg1.sroa.45.0.copyload_11_41
                                #x0000000000000040)
                         (= cmp125.not.i_11_85 #b1)
                         (= cmp125.not.i_11_85 #b0)))))
      (a!2 (=> (= tobool.not.i1.i_11_44 #b0)
               (and (ite (bvsgt src_reg1.sroa.27.0.copyload_11_38
                                src_reg1.sroa.34.0.copyload_11_39)
                         (= cmp39.old.i_11_54 #b1)
                         (= cmp39.old.i_11_54 #b0))
                    (ite (bvugt src_reg1.sroa.37.0.copyload_11_40
                                src_reg1.sroa.45.0.copyload_11_41)
                         (= cmp42.old.i_11_55 #b1)
                         (= cmp42.old.i_11_55 #b0))
                    (ite (= cmp39.old.i_11_54 #b1)
                         (= or.cond86.i_11_57 #b1)
                         (= or.cond86.i_11_57 cmp42.old.i_11_55)))))
      (a!3 (and (= cmp125.not.i_11_85 #b1)
                (and (= or.cond85.i_11_53 #b0) (= tobool.not.i1.i_11_44 #b1))))
      (a!4 (and (= cmp125.not.i_11_85 #b0)
                (and (= or.cond85.i_11_53 #b0) (= tobool.not.i1.i_11_44 #b1))))
      (a!5 (or (and (= or.cond86.i_11_57 #b1) (= tobool.not.i1.i_11_44 #b0))
               (and (= or.cond85.i_11_53 #b1) (= tobool.not.i1.i_11_44 #b1))))
      (a!6 (and (= #x00000001 src_reg_11_152)
                (= src_reg_11_19 src_reg_11_153)
                (= src_reg_11_20 src_reg_11_154)
                (= src_reg_11_21 src_reg_11_155)
                (= src_reg_11_22 src_reg_11_156)
                (= src_reg_11_23 src_reg_11_157)
                (= src_reg_11_24 src_reg_11_158)
                (= src_reg_11_25 src_reg_11_159)
                (= src_reg_11_26 src_reg_11_160)
                (= src_reg_11_27 src_reg_11_161)
                (= src_reg_11_28 src_reg_11_162)
                (= src_reg_11_29 src_reg_11_163)
                (= src_reg_11_30 src_reg_11_164)
                (= src_reg_11_31 src_reg_11_165)
                (= src_reg_11_32 src_reg_11_166)
                (= src_reg_11_33 src_reg_11_167)
                (= src_reg_11_34 src_reg_11_168)
                (= src_reg_11_35 src_reg_11_169)
                (= #x00000001 dst_reg_11_134)
                (= dst_reg_11_1 dst_reg_11_135)
                (= dst_reg_11_2 dst_reg_11_136)
                (= dst_reg_11_3 dst_reg_11_137)
                (= #x0000000000000000 dst_reg_11_138)
                (= #xffffffffffffffff dst_reg_11_139)
                (= #x8000000000000000 dst_reg_11_140)
                (= #x7fffffffffffffff dst_reg_11_141)
                (= #x0000000000000000 dst_reg_11_142)
                (= #xffffffffffffffff dst_reg_11_143)
                (= #x80000000 dst_reg_11_144)
                (= #x7fffffff dst_reg_11_145)
                (= #x00000000 dst_reg_11_146)
                (= #xffffffff dst_reg_11_147)
                (= #x00000000 dst_reg_11_148)
                (= dst_reg_11_15 dst_reg_11_149)
                (= dst_reg_11_16 dst_reg_11_150)
                (= #x01 dst_reg_11_151)))
      (a!9 (=> (= tobool.not.i1.i_11_44 #b1)
               (and (ite (distinct src_reg1.sroa.27.0.copyload_11_38
                                   src_reg1.sroa.34.0.copyload_11_39)
                         (= cmp33.not.i_11_45 #b1)
                         (= cmp33.not.i_11_45 #b0))
                    (ite (distinct src_reg1.sroa.37.0.copyload_11_40
                                   src_reg1.sroa.45.0.copyload_11_41)
                         (= cmp36.not.i_11_46 #b1)
                         (= cmp36.not.i_11_46 #b0))
                    (ite (= cmp33.not.i_11_45 #b1)
                         (= or.cond83.i_11_48 #b1)
                         (= or.cond83.i_11_48 cmp36.not.i_11_46))
                    (ite (bvsgt src_reg1.sroa.27.0.copyload_11_38
                                src_reg1.sroa.34.0.copyload_11_39)
                         (= cmp39.i_11_49 #b1)
                         (= cmp39.i_11_49 #b0))
                    (= or.cond84.i_11_50 (bvor cmp39.i_11_49 or.cond83.i_11_48))
                    (ite (bvugt src_reg1.sroa.37.0.copyload_11_40
                                src_reg1.sroa.45.0.copyload_11_41)
                         (= cmp42.i_11_51 #b1)
                         (= cmp42.i_11_51 #b0))
                    (ite (= or.cond84.i_11_50 #b1)
                         (= or.cond85.i_11_53 #b1)
                         (= or.cond85.i_11_53 cmp42.i_11_51))))))
(let ((a!7 (and (=> a!3
                    (and (= #x00000001 src_reg_11_152)
                         (= src_reg_11_19 src_reg_11_153)
                         (= src_reg_11_20 src_reg_11_154)
                         (= src_reg_11_21 src_reg_11_155)
                         (= src_reg_11_22 src_reg_11_156)
                         (= src_reg_11_23 src_reg_11_157)
                         (= src_reg_11_24 src_reg_11_158)
                         (= src_reg_11_25 src_reg_11_159)
                         (= src_reg_11_26 src_reg_11_160)
                         (= src_reg_11_27 src_reg_11_161)
                         (= src_reg_11_28 src_reg_11_162)
                         (= src_reg_11_29 src_reg_11_163)
                         (= src_reg_11_30 src_reg_11_164)
                         (= src_reg_11_31 src_reg_11_165)
                         (= src_reg_11_32 src_reg_11_166)
                         (= src_reg_11_33 src_reg_11_167)
                         (= src_reg_11_34 src_reg_11_168)
                         (= src_reg_11_35 src_reg_11_169)
                         (= #x00000001 dst_reg_11_134)
                         (= dst_reg_11_1 dst_reg_11_135)
                         (= dst_reg_11_2 dst_reg_11_136)
                         (= dst_reg_11_3 dst_reg_11_137)
                         (= shr14.i.i.i_11_105 dst_reg_11_138)
                         (= shr19.i.i.i_11_106 dst_reg_11_139)
                         (= cond.i7.i.i1030.i_11_128 dst_reg_11_140)
                         (= cond14.i8.i.i1036.i_11_133 dst_reg_11_141)
                         (= shr14.i.i.i_11_105 dst_reg_11_142)
                         (= and.i.i.i.i.i992.i33_11_122 dst_reg_11_143)
                         (= conv.i.i.i1000.i_11_116 dst_reg_11_144)
                         (= conv7.i.i.i1007.i_11_120 dst_reg_11_145)
                         (= conv17.i.i.i1012.i_11_121 dst_reg_11_146)
                         (= conv29.i.i.i1018.i_11_123 dst_reg_11_147)
                         (= dst_reg_11_14 dst_reg_11_148)
                         (= dst_reg_11_15 dst_reg_11_149)
                         (= dst_reg_11_16 dst_reg_11_150)
                         (= dst_reg_11_17 dst_reg_11_151)))
                (=> a!4
                    (and (= #x00000001 src_reg_11_152)
                         (= src_reg_11_19 src_reg_11_153)
                         (= src_reg_11_20 src_reg_11_154)
                         (= src_reg_11_21 src_reg_11_155)
                         (= src_reg_11_22 src_reg_11_156)
                         (= src_reg_11_23 src_reg_11_157)
                         (= src_reg_11_24 src_reg_11_158)
                         (= src_reg_11_25 src_reg_11_159)
                         (= src_reg_11_26 src_reg_11_160)
                         (= src_reg_11_27 src_reg_11_161)
                         (= src_reg_11_28 src_reg_11_162)
                         (= src_reg_11_29 src_reg_11_163)
                         (= src_reg_11_30 src_reg_11_164)
                         (= src_reg_11_31 src_reg_11_165)
                         (= src_reg_11_32 src_reg_11_166)
                         (= src_reg_11_33 src_reg_11_167)
                         (= src_reg_11_34 src_reg_11_168)
                         (= src_reg_11_35 src_reg_11_169)
                         (= #x00000001 dst_reg_11_134)
                         (= dst_reg_11_1 dst_reg_11_135)
                         (= dst_reg_11_2 dst_reg_11_136)
                         (= dst_reg_11_3 dst_reg_11_137)
                         (= #x0000000000000000 dst_reg_11_138)
                         (= #xffffffffffffffff dst_reg_11_139)
                         (= #x8000000000000000 dst_reg_11_140)
                         (= #x7fffffffffffffff dst_reg_11_141)
                         (= #x0000000000000000 dst_reg_11_142)
                         (= #xffffffffffffffff dst_reg_11_143)
                         (= #x80000000 dst_reg_11_144)
                         (= #x7fffffff dst_reg_11_145)
                         (= #x00000000 dst_reg_11_146)
                         (= #xffffffff dst_reg_11_147)
                         (= dst_reg_11_14 dst_reg_11_148)
                         (= dst_reg_11_15 dst_reg_11_149)
                         (= dst_reg_11_16 dst_reg_11_150)
                         (= dst_reg_11_17 dst_reg_11_151)))
                (=> a!5 a!6)
                (=> (and (= or.cond86.i_11_57 #b0)
                         (= tobool.not.i1.i_11_44 #b0))
                    a!6)
                (= dst_reg_11_134 dst_reg_11_170)
                (= dst_reg_11_135 dst_reg_11_171)
                (= dst_reg_11_136 dst_reg_11_172)
                (= dst_reg_11_137 dst_reg_11_173)
                (= dst_reg_11_138 dst_reg_11_174)
                (= dst_reg_11_139 dst_reg_11_175)
                (= dst_reg_11_140 dst_reg_11_176)
                (= dst_reg_11_141 dst_reg_11_177)
                (= dst_reg_11_142 dst_reg_11_178)
                (= dst_reg_11_143 dst_reg_11_179)
                (= dst_reg_11_144 dst_reg_11_180)
                (= dst_reg_11_145 dst_reg_11_181)
                (= dst_reg_11_146 dst_reg_11_182)
                (= dst_reg_11_147 dst_reg_11_183)
                (= dst_reg_11_148 dst_reg_11_184)
                (= dst_reg_11_149 dst_reg_11_185)
                (= dst_reg_11_150 dst_reg_11_186)
                (= dst_reg_11_151 dst_reg_11_187)
                (= src_reg_11_152 src_reg_11_188)
                (= src_reg_11_153 src_reg_11_189)
                (= src_reg_11_154 src_reg_11_190)
                (= src_reg_11_155 src_reg_11_191)
                (= src_reg_11_156 src_reg_11_192)
                (= src_reg_11_157 src_reg_11_193)
                (= src_reg_11_158 src_reg_11_194)
                (= src_reg_11_159 src_reg_11_195)
                (= src_reg_11_160 src_reg_11_196)
                (= src_reg_11_161 src_reg_11_197)
                (= src_reg_11_162 src_reg_11_198)
                (= src_reg_11_163 src_reg_11_199)
                (= src_reg_11_164 src_reg_11_200)
                (= src_reg_11_165 src_reg_11_201)
                (= src_reg_11_166 src_reg_11_202)
                (= src_reg_11_167 src_reg_11_203)
                (= src_reg_11_168 src_reg_11_204)
                (= src_reg_11_169 src_reg_11_205)))
      (a!10 (=> a!3
                (and (= dst_reg_11_6 i11.i971.i_11_97)
                     (= shr.i972.i_11_98
                        (bvashr i11.i971.i_11_97
                                src_reg1.sroa.37.0.copyload_11_40))
                     (= dst_reg_11_7 i12.i974.i_11_99)
                     (= shr1.i.i_11_100
                        (bvashr i12.i974.i_11_99
                                src_reg1.sroa.37.0.copyload_11_40))
                     (= dst_reg_11_4 i14.i977.i_11_101)
                     (= dst_reg_11_5 i16.i979.i_11_102)
                     (= sh_prom.i.i980.i_11_104
                        (bvand src_reg1.sroa.37.0.copyload_11_40
                               #x00000000000000ff))
                     (= shr14.i.i.i_11_105
                        (bvashr i14.i977.i_11_101 sh_prom.i.i980.i_11_104))
                     (= shr19.i.i.i_11_106
                        (bvashr i16.i979.i_11_102 sh_prom.i.i980.i_11_104))
                     (= and.i.i.i998.i_11_114
                        (bvand shr19.i.i.i_11_106 #x0000000080000000))
                     (= or.i.i.i999.i_11_115
                        (bvor and.i.i.i998.i_11_114 shr14.i.i.i_11_105))
                     (= conv.i.i.i1000.i_11_116
                        ((_ extract 31 0) or.i.i.i999.i_11_115))
                     (= and5.i.i.i1005.i_11_118
                        (bvand shr19.i.i.i_11_106 #x000000007fffffff))
                     (= or6.i.i.i1006.i_11_119
                        (bvor and5.i.i.i1005.i_11_118 shr14.i.i.i_11_105))
                     (= conv7.i.i.i1007.i_11_120
                        ((_ extract 31 0) or6.i.i.i1006.i_11_119))
                     (= conv17.i.i.i1012.i_11_121
                        ((_ extract 31 0) shr14.i.i.i_11_105))
                     (= and.i.i.i.i.i992.i33_11_122
                        (bvor shr19.i.i.i_11_106 shr14.i.i.i_11_105))
                     (= conv29.i.i.i1018.i_11_123
                        ((_ extract 31 0) and.i.i.i.i.i992.i33_11_122))
                     (= and.i4.i.i1027.i_11_125
                        (bvand shr19.i.i.i_11_106 #x8000000000000000))
                     (= or.i5.i.i1028.i_11_126
                        (bvor and.i4.i.i1027.i_11_125 shr14.i.i.i_11_105))
                     (ite (bvsgt shr.i972.i_11_98 or.i5.i.i1028.i_11_126)
                          (= cmp.i6.i.i1029.i_11_127 #b1)
                          (= cmp.i6.i.i1029.i_11_127 #b0))
                     (ite (= cmp.i6.i.i1029.i_11_127 #b1)
                          (= cond.i7.i.i1030.i_11_128 shr.i972.i_11_98)
                          (= cond.i7.i.i1030.i_11_128 or.i5.i.i1028.i_11_126))
                     (= and7.i.i.i1033.i_11_130
                        (bvand shr19.i.i.i_11_106 #x7fffffffffffffff))
                     (= or8.i.i.i1034.i_11_131
                        (bvor and7.i.i.i1033.i_11_130 shr14.i.i.i_11_105))
                     (ite (bvslt shr1.i.i_11_100 or8.i.i.i1034.i_11_131)
                          (= cmp10.i.i.i1035.i_11_132 #b1)
                          (= cmp10.i.i.i1035.i_11_132 #b0))
                     (ite (= cmp10.i.i.i1035.i_11_132 #b1)
                          (= cond14.i8.i.i1036.i_11_133 shr1.i.i_11_100)
                          (= cond14.i8.i.i1036.i_11_133 or8.i.i.i1034.i_11_131))))))
(let ((a!8 (=> (or a!3
                   a!4
                   (and (= or.cond86.i_11_57 #b0) (= tobool.not.i1.i_11_44 #b0))
                   a!5)
               a!7)))
  (and a!1
       a!2
       a!8
       a!9
       a!10
       (= dst_reg_11_0 dst_reg_11_0)
       (= dst_reg_11_1 dst_reg_11_1)
       (= dst_reg_11_2 dst_reg_11_2)
       (= dst_reg_11_3 dst_reg_11_3)
       (= dst_reg_11_4 dst_reg_11_4)
       (= dst_reg_11_5 dst_reg_11_5)
       (= dst_reg_11_6 dst_reg_11_6)
       (= dst_reg_11_7 dst_reg_11_7)
       (= dst_reg_11_8 dst_reg_11_8)
       (= dst_reg_11_9 dst_reg_11_9)
       (= dst_reg_11_10 dst_reg_11_10)
       (= dst_reg_11_11 dst_reg_11_11)
       (= dst_reg_11_12 dst_reg_11_12)
       (= dst_reg_11_13 dst_reg_11_13)
       (= dst_reg_11_14 dst_reg_11_14)
       (= dst_reg_11_15 dst_reg_11_15)
       (= dst_reg_11_16 dst_reg_11_16)
       (= dst_reg_11_17 dst_reg_11_17)
       (= src_reg_11_18 src_reg_11_18)
       (= src_reg_11_19 src_reg_11_19)
       (= src_reg_11_20 src_reg_11_20)
       (= src_reg_11_21 src_reg_11_21)
       (= src_reg_11_22 src_reg_11_22)
       (= src_reg_11_23 src_reg_11_23)
       (= src_reg_11_24 src_reg_11_24)
       (= src_reg_11_25 src_reg_11_25)
       (= src_reg_11_26 src_reg_11_26)
       (= src_reg_11_27 src_reg_11_27)
       (= src_reg_11_28 src_reg_11_28)
       (= src_reg_11_29 src_reg_11_29)
       (= src_reg_11_30 src_reg_11_30)
       (= src_reg_11_31 src_reg_11_31)
       (= src_reg_11_32 src_reg_11_32)
       (= src_reg_11_33 src_reg_11_33)
       (= src_reg_11_34 src_reg_11_34)
       (= src_reg_11_35 src_reg_11_35)
       (= src_reg_11_24 src_reg1.sroa.27.0.copyload_11_38)
       (= src_reg_11_25 src_reg1.sroa.34.0.copyload_11_39)
       (= src_reg_11_26 src_reg1.sroa.37.0.copyload_11_40)
       (= src_reg_11_27 src_reg1.sroa.45.0.copyload_11_41)
       (= src_reg_11_23 src_reg1.sroa.13.0.copyload_11_42)
       (ite (= src_reg1.sroa.13.0.copyload_11_42 #x0000000000000000)
            (= tobool.not.i1.i_11_44 #b1)
            (= tobool.not.i1.i_11_44 #b0)))))))

;{"dst_reg":["dst_reg_11_0","dst_reg_11_1",[""],"dst_reg_11_2","dst_reg_11_3",["dst_reg_11_4","dst_reg_11_5"],"dst_reg_11_6","dst_reg_11_7","dst_reg_11_8","dst_reg_11_9","dst_reg_11_10","dst_reg_11_11","dst_reg_11_12","dst_reg_11_13","","","dst_reg_11_14","dst_reg_11_15","dst_reg_11_16"],"src_reg":["src_reg_11_18","src_reg_11_19",[""],"src_reg_11_20","src_reg_11_21",["src_reg_11_22","src_reg_11_23"],"src_reg_11_24","src_reg_11_25","src_reg_11_26","src_reg_11_27","src_reg_11_28","src_reg_11_29","src_reg_11_30","src_reg_11_31","","","src_reg_11_32","src_reg_11_33","src_reg_11_34"]}
;{"dst_reg":["dst_reg_11_170","dst_reg_11_171",[""],"dst_reg_11_172","dst_reg_11_173",["dst_reg_11_174","dst_reg_11_175"],"dst_reg_11_176","dst_reg_11_177","dst_reg_11_178","dst_reg_11_179","dst_reg_11_180","dst_reg_11_181","dst_reg_11_182","dst_reg_11_183","","","dst_reg_11_184","dst_reg_11_185","dst_reg_11_186"],"src_reg":["src_reg_11_188","src_reg_11_189",[""],"src_reg_11_190","src_reg_11_191",["src_reg_11_192","src_reg_11_193"],"src_reg_11_194","src_reg_11_195","src_reg_11_196","src_reg_11_197","src_reg_11_198","src_reg_11_199","src_reg_11_200","src_reg_11_201","","","src_reg_11_202","src_reg_11_203","src_reg_11_204"]}
